WARNING: for repeatability, setting FPU to use double precision
============================[ Problem Statistics ]=============================
|                                                                             |
|  Number of variables:           100                                         |
|  Number of clauses:             449                                         |
|  Parse time:                   0.00 s                                       |
|  Simplification time:          0.00 s                                       |
|                                                                             |
============================[ Search Statistics ]==============================
| Conflicts |          ORIGINAL         |          LEARNT          | Progress |
|           |    Vars  Clauses Literals |    Limit  Clauses Lit/Cl |          |
===============================================================================
|       100 |     100      449     1347 |      164      100      8 |  0.010 % |
===============================================================================
restarts              : 2
conflicts             : 139            (56758 /sec)
decisions             : 193            (0.00 % random) (78808 /sec)
propagations          : 3225           (1316864 /sec)
conflict literals     : 1065           (12.13 % deleted)
Memory used           : 13.00 MB
CPU time              : 0.002449 s

SATISFIABLE
